
<<< setup


<<< generate

Version identifier: 22.1.1.0 | 2022-11-28 | 9160aff4d
CPXPARAM_TimeLimit                               1800
Found incumbent of value 0.000000 after 0.14 sec. (225.31 ticks)
Presolve has eliminated 13590882 rows and 66168 columns...
Presolve has improved bounds 5167 times...
Aggregator has done 5167 substitutions...
Aggregator has done 10664 substitutions...
Aggregator has done 15660 substitutions...
Aggregator has done 20656 substitutions...
Aggregator has done 25652 substitutions...
Aggregator has done 30648 substitutions...
Aggregator has done 35644 substitutions...
Aggregator has done 40640 substitutions...
Aggregator has done 45636 substitutions...
Aggregator has done 50632 substitutions...
Aggregator has done 55628 substitutions...
Aggregator has done 60624 substitutions...
Aggregator has done 65620 substitutions...
Aggregator has done 70616 substitutions...
Aggregator has done 75612 substitutions...
Aggregator has done 80608 substitutions...
Aggregator has done 85604 substitutions...
Aggregator has done 90600 substitutions...
Aggregator has done 95596 substitutions...
Aggregator has done 100592 substitutions...
Aggregator has done 105588 substitutions...
Aggregator has done 110584 substitutions...
Aggregator has done 115580 substitutions...
Aggregator has done 120576 substitutions...
Aggregator has done 125572 substitutions...
Aggregator has done 130568 substitutions...
Aggregator has done 135564 substitutions...
Aggregator has done 140560 substitutions...
Aggregator has done 145556 substitutions...
Tried aggregator 30 times.
Aggregator has done 145556 substitutions...
MIP Presolve eliminated 16759084 rows and 66168 columns.
MIP Presolve added 168 rows and 168 columns.
MIP Presolve modified 20367 coefficients.
Aggregator did 145556 substitutions.
Reduced MIP has 15120827 rows, 1468444 columns, and 35776910 nonzeros.
Reduced MIP has 1468444 binaries, 0 generals, 0 SOSs, and 0 indicators.
Presolve time = 578.61 sec. (1177054.45 ticks)
Probing time = 8.13 sec. (1612.44 ticks)
Presolve has eliminated 0 rows and 0 columns...
Aggregator has done 16589 substitutions...
Aggregator has done 21546 substitutions...
Aggregator has done 26503 substitutions...
Aggregator has done 29690 substitutions...
Aggregator has done 32047 substitutions...
Aggregator has done 36417 substitutions...
Aggregator has done 41374 substitutions...
Aggregator has done 46331 substitutions...
Aggregator has done 51288 substitutions...
Aggregator has done 56245 substitutions...
Aggregator has done 61202 substitutions...
Aggregator has done 66159 substitutions...
Aggregator has done 71116 substitutions...
Aggregator has done 76073 substitutions...
Aggregator has done 81030 substitutions...
Aggregator has done 85987 substitutions...
Aggregator has done 90944 substitutions...
Aggregator has done 95901 substitutions...
Aggregator has done 100858 substitutions...
Aggregator has done 103545 substitutions...
Aggregator has done 108429 substitutions...
Aggregator has done 110871 substitutions...
Aggregator has done 113313 substitutions...
Aggregator has done 118197 substitutions...
Aggregator has done 120639 substitutions...
Aggregator has done 123081 substitutions...
Tried aggregator 30 times.
Aggregator has done 125523 substitutions...
Detecting symmetries...
MIP Presolve eliminated 1276873 rows and 0 columns.
MIP Presolve modified 15052 coefficients.
Aggregator did 125523 substitutions.
Reduced MIP has 13718392 rows, 1342921 columns, and 34242439 nonzeros.
Reduced MIP has 1342921 binaries, 0 generals, 0 SOSs, and 0 indicators.
Presolve time = 472.67 sec. (1000563.14 ticks)
Probing time = 5.85 sec. (1465.84 ticks)
Clique table members: 15061446.
MIP emphasis: balance optimality and feasibility.
MIP search method: dynamic search.
Parallel mode: deterministic, using up to 8 threads.
